language ESSENCE' 1.0
letting lastdx=100
letting cage be [
[25,3,4,3,5,3,6,0,0, 0,0],
[15,4,5,4,4,5,4,0,0, 0,0],
[8,5,6,0,0, 0,0, 0,0, 0,0],
[28,3,2,2,2,2,1,1,1,1,2],
[13,3,1,0,0, 0,0, 0,0, 0,0],
[10,12,8,0,0, 0,0, 0,0, 0,0],
[30,7,11,7,10,8,10,9,10,0,0],
[19,10,5,9,5,8,5,0,0, 0,0],
[12,16,8,16,7,0,0, 0,0, 0,0],
[40,4,7,4,6,4,8,0,0, 0,0],
[15,3,8,0,0, 0,0, 0,0, 0,0],
[32,14,8,14,7,15,7,0,0, 0,0],
[14,12,11,0,0, 0,0, 0,0, 0,0],
[40,14,9,14,10,13,10,12,10,11,10],
[13,14,14,0,0, 0,0, 0,0, 0,0],
[6,14,1,0,0, 0,0, 0,0, 0,0],
[15,13,11,13,12,12,12,0,0, 0,0],
[26,12,13,13,13,13,14,0,0, 0,0],
[1,13,8,0,0, 0,0, 0,0, 0,0],
[29,12,5,13,5,0,0, 0,0, 0,0],
[8,12,2,0,0, 0,0, 0,0, 0,0],
[57,3,11,3,12,3,13,3,14,4,14],
[16,5,7,0,0, 0,0, 0,0, 0,0],
[10,6,16,5,16,0,0, 0,0, 0,0],
[30,15,2,15,3,14,3,14,4,0,0],
[14,2,12,0,0, 0,0, 0,0, 0,0],
[42,5,2,6,2,6,3,5,3,4,3],
[41,11,14,11,15,11,16,12,16,0,0],
[15,15,11,15,12,0,0, 0,0, 0,0],
[8,3,3,0,0, 0,0, 0,0, 0,0],
[15,10,16,0,0, 0,0, 0,0, 0,0],
[41,13,1,13,2,14,2,13,3,0,0],
[12,10,6,0,0, 0,0, 0,0, 0,0],
[20,11,13,10,13,9,13,9,14,0,0],
[16,8,13,0,0, 0,0, 0,0, 0,0],
[44,2,13,1,13,1,14,2,14,2,15],
[12,4,13,4,12,5,12,0,0, 0,0],
[4,9,1,0,0, 0,0, 0,0, 0,0],
[26,8,15,7,15,0,0, 0,0, 0,0],
[23,8,6,9,6,0,0, 0,0, 0,0],
[20,7,14,8,14,6,14,0,0, 0,0],
[10,13,16,0,0, 0,0, 0,0, 0,0],
[50,15,1,16,1,16,2,16,3,16,4],
[29,6,7,6,6,7,6,7,7,0,0],
[14,4,1,4,2,0,0, 0,0, 0,0],
[44,11,11,11,12,10,12,10,11,0,0],
[9,5,11,0,0, 0,0, 0,0, 0,0],
[2,2,8,0,0, 0,0, 0,0, 0,0],
[23,9,9,9,8,9,7,10,7,0,0],
[37,4,16,4,15,3,15,3,16,2,16],
[18,14,12,14,11,14,13,0,0, 0,0],
[8,15,16,0,0, 0,0, 0,0, 0,0],
[34,7,3,8,3,8,2,9,2,0,0],
[6,12,3,0,0, 0,0, 0,0, 0,0],
[11,3,9,2,9,2,10,0,0, 0,0],
[9,16,15,16,16,0,0, 0,0, 0,0],
[29,12,9,13,9,11,9,0,0, 0,0],
[13,16,11,0,0, 0,0, 0,0, 0,0],
[9,2,5,2,6,0,0, 0,0, 0,0],
[2,6,11,0,0, 0,0, 0,0, 0,0],
[62,15,10,15,9,15,8,16,9,16,10],
[47,9,15,9,16,8,16,7,16,0,0],
[9,16,14,0,0, 0,0, 0,0, 0,0],
[8,10,14,10,15,0,0, 0,0, 0,0],
[23,2,3,2,4,0,0, 0,0, 0,0],
[14,11,5,0,0, 0,0, 0,0, 0,0],
[18,10,9,10,10,10,8,11,8,0,0],
[9,6,1,5,1,0,0, 0,0, 0,0],
[13,7,13,0,0, 0,0, 0,0, 0,0],
[30,15,15,14,15,14,16,13,15,0,0],
[7,16,5,0,0, 0,0, 0,0, 0,0],
[15,1,3,0,0, 0,0, 0,0, 0,0],
[14,1,4,0,0, 0,0, 0,0, 0,0],
[8,1,5,0,0, 0,0, 0,0, 0,0],
[10,1,6,0,0, 0,0, 0,0, 0,0],
[30,1,7,1,8,1,9,1,10,0,0],
[31,1,11,1,12,2,11,0,0, 0,0],
[19,1,15,1,16,0,0, 0,0, 0,0],
[19,2,7,3,7,0,0, 0,0, 0,0],
[34,3,10,4,10,4,9,4,11,0,0],
[1,5,13,0,0, 0,0, 0,0, 0,0],
[7,5,14,0,0, 0,0, 0,0, 0,0],
[15,5,15,6,15,0,0, 0,0, 0,0],
[29,6,9,6,10,0,0, 0,0, 0,0],
[35,6,12,6,13,7,12,0,0, 0,0],
[35,7,1,7,2,8,1,0,0, 0,0],
[8,8,4,0,0, 0,0, 0,0, 0,0],
[6,8,11,8,12,0,0, 0,0, 0,0],
[11,9,3,0,0, 0,0, 0,0, 0,0],
[59,9,4,10,4,10,3,10,2,11,2],
[18,9,11,9,12,0,0, 0,0, 0,0],
[3,10,1,0,0, 0,0, 0,0, 0,0],
[25,11,1,12,1,0,0, 0,0, 0,0],
[2,11,3,0,0, 0,0, 0,0, 0,0],
[1,11,4,0,0, 0,0, 0,0, 0,0],
[12,12,4,13,4,0,0, 0,0, 0,0],
[15,12,7,13,7,0,0, 0,0, 0,0],
[16,12,14,12,15,0,0, 0,0, 0,0],
[12,14,5,0,0, 0,0, 0,0, 0,0],
[9,14,6,0,0, 0,0, 0,0, 0,0],
[38,15,13,15,14,16,13,16,12,0,0]
]
